language Essence 1.3

letting class be function(1 --> 3, 2 --> 1, 3 --> 1, 4 --> 2, 5 --> 2)
letting deck_length be 57
letting deck_width be 7
letting length be function(1 --> 3, 2 --> 1, 3 --> 2, 4 --> 2, 5 --> 28)
letting n_classes be 3
letting n_containers be 5
letting separation be function()
letting width be function(1 --> 6, 2 --> 4, 3 --> 5, 4 --> 5, 5 --> 7)
